NAME : instances/20-120-tsp/instance-41.tsp
COMMENT : No Comment
TYPE : TSP
DIMENSION: 41
EDGE_WEIGHT_TYPE : EUC_2D
NODE_COORD_SECTION
1 5824 3606 
2 2148 6823 
3 6982 2026 
4 9705 374 
5 7398 7008 
6 3966 4150 
7 6805 2723 
8 5655 6228 
9 798 4432 
10 9278 3269 
11 9160 3494 
12 5743 2801 
13 690 7415 
14 1802 5887 
15 7051 1717 
16 2648 6758 
17 8457 694 
18 2862 6157 
19 6465 4114 
20 1079 2741 
21 5752 4226 
22 3695 3982 
23 3797 7028 
24 982 2226 
25 5479 5951 
26 4806 7478 
27 7130 7667 
28 5209 7626 
29 1666 3199 
30 7932 247 
31 5079 2045 
32 1470 1949 
33 9815 969 
34 2320 1212 
35 5681 3103 
36 48 1889 
37 5774 2106 
38 5778 6034 
39 6030 1762 
40 2267 7619 
41 2508 840 
EOF
